Minimize
  - 26 y_0 - 19 y_1 - 29 y_2 - 38 y_3 - 29 y_4 - 9 y_6 - 9 y_7 - 22 y_8
   - 16 y_9 - 13 y_10 - 31 y_11 - 17 y_12 - 31 y_13 - 30 y_14 - 26 y_15
   - 29 y_16 - 30 y_17 - 16 y_18 - 22 y_19 + 442 Constant
Subject To
 c_0: y_1 = 1
 c_1_0: y_0 + y_2 + y_19 >= 1
 c_1_1: y_1 + y_8 + y_18 >= 1
 c_1_2: y_0 + y_2 >= 1
 c_1_3: y_3 >= 1
 c_1_4: y_4 + y_16 + y_17 >= 1
 c_1_5: y_5 >= 1
 c_1_6: y_6 >= 1
 c_1_7: y_7 >= 1
 c_1_8: y_1 + y_8 >= 1
 c_1_9: y_9 >= 1
 c_1_10: y_10 + y_12 >= 1
 c_1_11: y_11 + y_13 >= 1
 c_1_12: y_10 + y_12 >= 1
 c_1_13: y_11 + y_13 >= 1
 c_1_14: y_14 >= 1
 c_1_15: y_15 >= 1
 c_1_16: y_4 + y_16 + y_17 >= 1
 c_1_17: y_4 + y_16 + y_17 >= 1
 c_1_18: y_1 + y_18 >= 1
 c_1_19: y_0 + y_19 >= 1
Bounds
 Constant = 1
Binaries
 y_0 y_1 y_2 y_3 y_4 y_5 y_6 y_7 y_8 y_9 y_10 y_11 y_12 y_13 y_14 y_15 y_16
 y_17 y_18 y_19
End
